22
3 14 12 29 
3 46 53 39 
3 11 50 24 
3 10 5 38 
3 43 7 55 
3 18 17 22 
3 30 49 4 
3 6 42 9 
2 28 32 
3 15 2 34 
3 23 60 47 
2 52 19 
2 44 57 
2 37 35 
2 16 25 
3 3 59 40 
3 13 54 20 
3 31 27 58 
3 26 48 45 
2 51 41 
3 36 1 56 
3 33 21 8 
